(set-logic LRA)

(synth-fun func ((hair Bool) (feathers Bool) (eggs Bool) (milk Bool) (airborne Bool) (aquatic Bool) (predator Bool) (toothed Bool) (backbone Bool) (breathes Bool) (venomous Bool) (fins Bool) (legs Real) (tail Bool) (domestic Bool) (catsize Bool) ) Bool



)

(constraint (= (func false true false false false true false false false false false false 0.63 false true true ) false))
(constraint (= (func false true false true false true false true false true false false 0.924 false true true ) false))
(constraint (= (func true true true false false true false false true false true true 0.466 true true true ) true))
(constraint (= (func true false false true true true false true false false false true 0.995 true false true ) true))
(constraint (= (func true false false false false true false true true false true true 0.682 false true false ) true))
(constraint (= (func false true false false false true false false true false false true 0.087 true true true ) true))
(constraint (= (func true true false false false true true true true false true true 0.632 false true false ) true))
(constraint (= (func false true true false true false true false true false false true 0.62 false false true ) true))
(constraint (= (func true false false true false true false true true false false true 0.73 true true false ) true))
(constraint (= (func false false true false true false true false true false false true 0.155 false true false ) true))
(constraint (= (func false false true true true false true false false false true true 0.354 true true true ) true))
(constraint (= (func false true true true true true false true true false false true 0.694 true true true ) true))
(constraint (= (func true false false true false false false false true false true true 0.837 false true true ) true))
(constraint (= (func true true false false false true true false false false false true 0.164 false true true ) true))
(constraint (= (func true true false false true true false false false false true true 0.418 false false false ) true))
(constraint (= (func false false true false false false false true true false true true 0.459 true true false ) true))
(constraint (= (func true false false false false false true true false false false true 0.602 false false true ) true))
(constraint (= (func false true false false false false true true false false false true 0.448 false true false ) true))
(constraint (= (func true true true true true false false false true false true true 0.071 false false false ) true))
(constraint (= (func false true false true true false true false true false false true 0.692 true true false ) true))
(constraint (= (func false false false false true true false true true false false true 0.212 false false false ) true))
(constraint (= (func true false false true false false false false true false true true 0.171 false true false ) true))
(constraint (= (func true false false false true true false false false false false true 0.298 true true true ) true))
(constraint (= (func false false false false false false false true false false true true 0.486 false true false ) true))
(constraint (= (func false false true false true false true true false false true true 0.225 false true true ) true))
(constraint (= (func false false true false true true false false true false false true 0.021 false false false ) true))
(constraint (= (func true true true false false false true true true false true true 0.241 true false true ) true))
(constraint (= (func false true true true true false true false false false true true 0.371 false true true ) true))
(constraint (= (func true true true false false false true true true false false true 0.472 true true false ) true))
(constraint (= (func true true false true true false false true true false true true 0.848 false true false ) true))
(constraint (= (func true true true false false false false true true false true true 0.539 false true true ) true))
(constraint (= (func false true true false true true false true true false false true 0.167 true false true ) true))
(constraint (= (func false false false true false false false false false false false true 0.674 true true true ) true))
(constraint (= (func false false false false true true false false true false true true 0.462 false true true ) true))
(constraint (= (func true false true true false true false false false false true true 0.425 false false true ) true))
(constraint (= (func true false false false false true true true false false false true 0.338 false false true ) true))
(constraint (= (func false true true false false false true true true false false true 0.638 false false false ) true))
(constraint (= (func true false true true true true true false false false false true 0.038 true false false ) true))
(constraint (= (func true false false false false false true true false false false true 0.212 true true true ) true))
(constraint (= (func true false true true false true false false true false true true 0.434 false false true ) true))
(constraint (= (func true true true true false true false false true false false true 0.172 false true false ) true))
(constraint (= (func false true false false false true false true true false false true 0.612 false false true ) true))
(constraint (= (func true false false false false true false false true false true true 0.591 false false true ) true))
(constraint (= (func true false false false true true true true false false true true 0.377 true true true ) true))
(constraint (= (func false true false true true false true false false false true true 0.906 true true false ) true))
(constraint (= (func false false false false true true true false false false true true 0.467 true false false ) true))
(constraint (= (func false true false false true true true true true false true true 0.401 true false true ) true))
(constraint (= (func false false true false false true true true true false true true 0.55 true true true ) true))
(constraint (= (func true false true true true false false true false false false true 0.617 true true false ) true))
(constraint (= (func false true false true false true true true true false true true 0.764 true false false ) true))
(constraint (= (func true false true false true true false true false false false true 0.604 false false true ) true))
(constraint (= (func false true false false false false false false true false false true 0.134 true false false ) true))
(constraint (= (func true true false false true false false false true false false true 0.514 false false false ) true))
(constraint (= (func true false true true false true false true true false false true 0.297 false false true ) true))
(constraint (= (func true false false true false true true false false false true true 0.576 false true false ) true))
(constraint (= (func true true true false false false true false false false true true 0.342 true true false ) true))
(constraint (= (func false true true false true false true true false false true true 0.763 false true false ) true))
(constraint (= (func false true true true false true false false true false true true 0.34 false true true ) true))
(constraint (= (func false false false false false true false false true false true true 0.289 true false false ) true))
(constraint (= (func true false false false false false false false true false false true 0.954 true false false ) true))
(constraint (= (func true true true false false false false true false false true true 0.461 true true false ) true))
(constraint (= (func true true false false true true false true true false false true 0.22 false true true ) true))
(constraint (= (func false false false true true false true false true false true true 0.642 true false false ) true))
(constraint (= (func true true false false true false true false false false true true 0.847 false false false ) true))
(constraint (= (func true false false false true false false true false false false true 0.008 true false false ) true))
(constraint (= (func true true false false false false true true true false false true 0.96 true true true ) true))
(constraint (= (func true false false true false true false false true false true true 0.815 true true false ) true))
(constraint (= (func false true true false false false true true true false false true 0.821 true false false ) true))
(constraint (= (func true true true false true false true false false false false true 0.577 true false true ) true))
(constraint (= (func true false true false true false true true true false true true 0.194 false true false ) true))
(constraint (= (func false false true true true false false false false false false true 0.234 false false false ) true))
(constraint (= (func false false false false true false false false false false true true 0.894 false false true ) true))
(constraint (= (func false false true true true true true false false false true true 0.387 false false false ) true))
(constraint (= (func true true true false false true false true true false false true 0.295 true false true ) true))
(constraint (= (func false false false false false false false true true false false true 0.148 true true true ) true))
(constraint (= (func false true false false true false true true false false false true 0.837 true true false ) true))
(constraint (= (func true true false false false false true false false false false true 0.292 false true false ) true))
(constraint (= (func true true false false false false true false false false true true 0.182 false true true ) true))
(constraint (= (func false false true false false true false false false false false true 0.875 true false false ) true))
(constraint (= (func false true true false true false false false true false true true 0.728 true true true ) true))
(constraint (= (func false false false true false true true true false false false true 0.4 true false false ) true))
(constraint (= (func true true false true true false false true true false true true 0.7 false false true ) true))
(constraint (= (func true true true true false true true true false false true true 0.947 true false false ) true))
(constraint (= (func false false false false false false true true true false false true 0.565 true true true ) true))
(constraint (= (func true true false false false true true true false false true true 0.2 true false true ) true))
(constraint (= (func true false true true true false false false false false true true 0.894 true true false ) true))
(constraint (= (func true true true false false true false true false false true true 0.624 false false false ) true))
(constraint (= (func true true false false false false false true false false false true 0.184 true false false ) true))
(constraint (= (func false true true false false false true true true false true true 0.284 false false true ) true))
(constraint (= (func true true true true false true true true true false true true 0.631 false true true ) true))
(constraint (= (func true false true true true true false false true false false true 0.669 true true true ) true))
(constraint (= (func false false true true false false false false true false false true 0.759 true false true ) true))
(constraint (= (func false true true true true true true true true false true true 0.685 true true false ) true))
(constraint (= (func false false false true false false false false false false false true 0.553 false true true ) true))
(constraint (= (func true true true false false true true true false false true true 0.162 true false false ) true))
(constraint (= (func true true true false false true true false false false true true 0.471 true false true ) true))
(constraint (= (func false false true false false true true true true false false true 0.925 true false false ) true))
(constraint (= (func false false true false false true true true true false true true 0.592 false false true ) true))
(constraint (= (func true true true true false false true false true false false true 0.741 false true false ) true))
(constraint (= (func true true false true false false false true false false false true 0.975 true false true ) true))
(constraint (= (func false false true true false true false false false false true true 0.135 true true true ) true))
(constraint (= (func false false false false false false false false true false false true 0.281 true false true ) true))
(constraint (= (func true true false true true true false false true false true true 0.481 false false false ) true))
(constraint (= (func false true false true false true false false false false false true 0.269 false false false ) true))
(constraint (= (func false true true true true true false true true false false true 0.971 true false false ) true))
(constraint (= (func true true true false false false true true false false true true 0.686 true false false ) true))
(constraint (= (func false true true true false false false false false false true true 0.801 true false true ) true))
(constraint (= (func true false false true true false true false true false true true 0.865 true false false ) true))
(constraint (= (func true true false true true false false false false false true true 0.312 false true false ) true))
(constraint (= (func true false false true false false false true false false false true 0.296 false false false ) true))
(constraint (= (func true false false false true false false true false false true true 0.549 true false true ) true))
(constraint (= (func true true false true true true false false false false true true 0.189 true false true ) true))
(constraint (= (func false true false false false false true true true false true true 0.39 false true false ) true))
(constraint (= (func true false false true false false false false false false true true 0.253 false false false ) true))
(constraint (= (func false false true false false false true false true false true true 0.178 true true true ) true))
(constraint (= (func false true false false true false true true false false true true 0.503 true true false ) true))
(constraint (= (func false false true false false false true true true false true true 0.211 true false true ) true))
(constraint (= (func true false false true false false true false false false false true 0.431 false true true ) true))
(constraint (= (func true true false true false false true false true false true true 0.981 true false false ) true))
(constraint (= (func true true true false false true true false true false false true 0.049 true false false ) true))
(constraint (= (func false true true false false false false true true false true true 0.741 true true false ) true))
(constraint (= (func true false true false true false false false false false false true 0.635 false false false ) true))
(constraint (= (func false true false false true false false false false false true true 0.545 false false true ) true))
(constraint (= (func false false false false false true true true false false true true 0.842 true true false ) true))
(constraint (= (func false false true false false true false false true false false true 0.139 false false false ) true))
(constraint (= (func true true false false true false true false true false false true 0.788 false false false ) true))
(constraint (= (func false true true false false true true true false false false true 0.646 false false false ) true))
(constraint (= (func false false true true false false true false true false false true 0.796 false true true ) true))
(constraint (= (func false true false false true false true true false false false true 0.739 true true false ) true))
(constraint (= (func false true false true true false false true false false false true 0.245 true false true ) true))
(constraint (= (func true false true false true true true true true false false true 0.394 false true true ) true))
(constraint (= (func true false false true true true false false false false true true 0.149 false true true ) true))
(constraint (= (func true true true true false true true true false false true true 0.992 false false true ) true))
(constraint (= (func true true false true true false true true false false true true 0.416 true true false ) true))
(constraint (= (func true true false true true false true true true false true true 0.979 true false true ) true))
(constraint (= (func true true false false true true true false false false true true 0.063 false false true ) true))
(constraint (= (func true true false true false true true false true false false true 0.63 true true false ) true))
(constraint (= (func false true false true true true true false true false true true 0.616 true false false ) true))
(constraint (= (func true true true false false true true false true false true true 0.727 true true true ) true))
(constraint (= (func true true true true false false true false true false false true 0.055 false true false ) true))
(constraint (= (func true false true true false true true true true false true true 0.85 false false true ) true))
(constraint (= (func true true false true false false true false true false true true 0.122 false true false ) true))
(constraint (= (func false false true true true true false false true false true true 0.438 true true false ) true))
(constraint (= (func true true false true true true true true false false false true 0.516 true false false ) true))
(constraint (= (func false false false false false false false false true false true true 0.215 false false false ) true))
(constraint (= (func true false false false true false true true true false true true 0.737 false true true ) true))
(constraint (= (func false false false true false false false false false false true true 0.632 true true false ) true))
(constraint (= (func true false false true false false true true false false false true 0.25 false true false ) true))
(constraint (= (func true false false true false true true true true false true true 0.461 true true true ) true))
(constraint (= (func false true false true false true true true false false true true 0.747 false true false ) true))
(constraint (= (func false false true false false true false true true false true true 0.353 true true true ) true))
(constraint (= (func false false true false true false true false true false true true 0.824 true true false ) true))
(constraint (= (func true true false false true false true false true false true true 0.56 false true true ) true))
(constraint (= (func false true false false true true true false false false false true 0.587 true true true ) true))
(constraint (= (func true true true true true true false true true false true true 0.019 false false true ) true))
(constraint (= (func true true false false true false false true true false true true 0.27 true true true ) true))
(constraint (= (func true false true false true false false false false false true true 0.972 true false false ) true))
(constraint (= (func false true false false true false true false false false false true 0.166 false true false ) true))
(constraint (= (func true false true true false true false false true false false true 0.903 false true false ) true))
(constraint (= (func true true false true true false false true false false true true 0.717 false false true ) true))
(constraint (= (func false true true true true true false true true false true true 0.622 false true false ) true))
(constraint (= (func true true true true true false true true false false false true 0.09 true true true ) true))
(constraint (= (func true false true false false true false false false false false true 0.914 true true false ) true))
(constraint (= (func false true true false true false true true true false true true 0.566 true true false ) true))
(constraint (= (func true false true true false false true true true false true true 0.064 true false false ) true))
(constraint (= (func true true false true true true false true true false false true 0.903 true false true ) true))
(constraint (= (func true false false false true false true true false false false true 0.972 true false true ) true))
(constraint (= (func false true true true false true false false false false false true 0.439 false false false ) true))
(constraint (= (func true true true true false true true true false false false true 0.288 false false true ) true))
(constraint (= (func true false false true false true false true true false true true 0.316 false true true ) true))
(constraint (= (func true false false true false false true true true false false true 0.291 false false false ) true))
(constraint (= (func false true true false false true false false true false false true 0.712 true true true ) true))
(constraint (= (func false true false true false false false false true false true true 0.679 false true true ) true))
(constraint (= (func true false false true true true true true true false true true 0.677 false true true ) true))


(check-synth)
